; benchmark generated from python API
(set-info :status unknown)
(declare-fun S_4 () Real)
(declare-fun C () Real)
(declare-fun S_5 () Real)
(declare-fun S_3 () Real)
(declare-fun S_2 () Real)
(declare-fun L_0 () Real)
(declare-fun S_1 () Real)
(declare-fun A_0 () Real)
(declare-fun L_2 () Real)
(declare-fun A_3 () Real)
(declare-fun A_5 () Real)
(declare-fun A_2 () Real)
(declare-fun S_0 () Real)
(declare-fun A_4 () Real)
(declare-fun B () Real)
(declare-fun L_1 () Real)
(declare-fun A_1 () Real)
(assert
 (let (($x39 (>= L_0 0.0)))
 (let (($x685 (>= C 5.0)))
 (let (($x633 (>= B 5.0)))
 (let ((?x1119 (* (- 1.0) S_0)))
 (let ((?x1471 (* (- 4.0) C)))
 (let ((?x620 (* (- 1.0) B)))
 (let ((?x467 (* (- 1.0) A_5)))
 (let (($x3104 (<= (+ ?x467 A_3 (* (- 1.0) A_2) S_5 L_2 (* (- 1.0) C) ?x620) 0.0)))
 (let (($x25635 (<= (+ (* (- 1.0) A_4) A_3 S_5 ?x620 (* (- 5.0) C) ?x1119) 0.0)))
 (let (($x33415 (<= 0.0 (+ (* (- 1.0) A_3) A_2 C))))
 (let (($x12823 (<= (+ (* (- 1.0) S_5) (* 3.0 C) S_1) 0.0)))
 (let ((?x1029 (* 2.0 C)))
 (let ((?x491 (* (- 1.0) S_5)))
 (let ((?x475 (* (- 1.0) A_3)))
 (let (($x2885 (<= (+ A_4 ?x475 A_2 ?x491 (* (- 1.0) L_2) C B) 0.0)))
 (let (($x1731 (<= (+ A_2 ?x491 (* (- 1.0) L_2) ?x1029) 0.0)))
 (let (($x1092 (<= (+ A_4 ?x491 (* (- 1.0) L_2)) 0.0)))
 (let (($x65994 (or $x1092 $x1731 $x2885 (<= (+ A_4 ?x475 ?x491 B ?x1029 S_1) 0.0) $x12823 $x33415)))
 (let (($x9264 (<= (+ ?x491 ?x1029 S_2) 0.0)))
 (let (($x25194 (<= (+ (* (- 1.0) A_4) A_3 (* (- 1.0) A_0) S_5 ?x620 ?x1471 L_0) 0.0)))
 (let (($x26170 (<= (+ (* (- 1.0) A_4) A_3 S_5 ?x620 ?x1471 (* (- 1.0) S_1)) 0.0)))
 (let ((?x524 (* (- 1.0) S_2)))
 (let ((?x1431 (* (- 3.0) C)))
 (let ((?x471 (* (- 1.0) A_4)))
 (let (($x33775 (<= 0.0 (+ (* (- 1.0) A_2) A_1 (* (- 1.0) L_1) C L_2))))
 (let (($x33783 (not $x33775)))
 (let (($x11521 (<= (+ A_4 ?x475 ?x491 B (* 3.0 C) S_0) 0.0)))
 (let (($x11128 (<= (+ ?x491 (* 4.0 C) S_0) 0.0)))
 (let (($x9667 (<= (+ ?x467 A_3 S_5 ?x620 (* (- 1.0) C) (* (- 1.0) S_3)) 0.0)))
 (let (($x2903 (<= (+ ?x471 A_3 (* (- 1.0) A_2) L_2 (* (- 1.0) C) ?x620 S_4) 0.0)))
 (let (($x34993 (<= 0.0 (+ A_2 (* (- 1.0) A_1) (* (- 1.0) L_2) (* (- 1.0) C) L_1))))
 (let (($x34994 (not $x34993)))
 (let (($x34152 (<= 0.0 (+ (* (- 1.0) A_1) C S_0 L_1))))
 (let (($x34153 (not $x34152)))
 (let (($x33919 (<= 0.0 (+ ?x475 A_1 (* (- 1.0) L_1) ?x1029 L_2 B))))
 (let (($x5616 (<= (+ A_1 (* (- 1.0) L_1) ?x491 (* 3.0 C)) 0.0)))
 (let (($x38943 (or $x5616 (<= (+ A_4 ?x475 A_1 (* (- 1.0) L_1) ?x491 ?x1029 B) 0.0) $x33919 $x34153 $x34994)))
 (let (($x7533 (<= (+ ?x471 A_3 (* (- 1.0) A_1) L_1 (* (- 2.0) C) ?x620 S_4) 0.0)))
 (let (($x32938 (not $x33415)))
 (let (($x2447 (<= (+ A_3 ?x491 (* (- 1.0) L_2) C) 0.0)))
 (let (($x26366 (<= (+ ?x471 A_3 S_5 ?x620 (* (- 1.0) C) (* (- 1.0) S_4)) 0.0)))
 (let (($x25306 (<= (+ ?x471 A_3 S_5 ?x620 (* (- 2.0) C) (* (- 1.0) S_3)) 0.0)))
 (let (($x351 (<= 0.0 (+ ?x475 A_1 ?x1029 (* (- 1.0) L_1) L_2))))
 (let (($x20495 (<= (+ A_4 ?x467 S_5 ?x620 (* (- 2.0) C) (* (- 1.0) S_3)) 0.0)))
 (let (($x20494 (<= (+ A_4 ?x467 S_5 ?x620 (* (- 1.0) C) (* (- 1.0) S_4)) 0.0)))
 (let (($x8364 (<= (+ ?x471 A_3 ?x620 (* (- 1.0) C) S_4 (* (- 1.0) S_3)) 0.0)))
 (let (($x1776 (<= (+ A_2 (* (- 1.0) L_2) C (* (- 1.0) S_4)) 0.0)))
 (let (($x1098 (<= (+ A_3 (* (- 1.0) L_2) (* (- 1.0) S_4)) 0.0)))
 (let (($x1780 (<= (+ A_2 (* (- 1.0) L_2) (* (- 1.0) S_3)) 0.0)))
 (let (($x13984 (or $x1780 (<= (+ A_1 (* (- 1.0) L_1) C (* (- 1.0) S_3)) 0.0) (<= (+ ?x1029 (* (- 1.0) S_3) S_0) 0.0))))
 (let (($x12437 (or (<= (+ A_1 (* (- 1.0) L_1) ?x524) 0.0) (<= (+ C ?x524 S_0) 0.0))))
 (let (($x34411 (or $x1092 (<= (+ A_4 ?x475 ?x491 B S_3) 0.0) (<= (+ ?x491 C S_3) 0.0))))
 (let (($x9178 (<= (+ ?x467 A_3 (* (- 1.0) A_1) L_1 S_5 ?x620 (* (- 2.0) C)) 0.0)))
 (let (($x3059 (<= (+ A_4 ?x467 (* (- 1.0) A_2) S_5 L_2 (* (- 2.0) C) ?x620) 0.0)))
 (let (($x2900 (<= (+ ?x471 A_3 (* (- 1.0) A_2) S_5 L_2 (* (- 2.0) C) ?x620) 0.0)))
 (let (($x64567 (or $x1098 (<= (+ A_1 (* (- 1.0) L_1) ?x1029 (* (- 1.0) S_4)) 0.0) $x33775 $x34153)))
 (let (($x34159 (or $x1098 $x1776 (<= (+ (* 3.0 C) (* (- 1.0) S_4) S_0) 0.0) $x34152)))
 (let ((?x590 (* (- 1.0) L_2)))
 (let ((?x544 (* (- 1.0) C)))
 (let ((?x483 (* (- 1.0) A_1)))
 (let (($x33766 (<= 0.0 (+ A_2 ?x483 ?x544 L_1 ?x590 ?x620))))
 (let (($x5681 (= (+ (* (- 1.0) A_2) A_1 (* (- 1.0) L_1) C L_2 B) 0.0)))
 (let (($x66 (= L_2 L_1)))
 (let (($x64618 (or $x66 (<= (+ ?x467 A_3 (* (- 1.0) A_2) S_5 ?x544 L_2) 0.0))))
 (let (($x7523 (<= (+ A_4 ?x467 (* (- 1.0) A_2) S_5 (* (- 2.0) C) L_2) 0.0)))
 (let (($x6975 (<= (+ ?x471 A_3 (* (- 1.0) A_2) S_5 (* (- 2.0) C) L_2) 0.0)))
 (let (($x66296 (or $x66 (<= (+ ?x471 A_3 (* (- 1.0) A_2) ?x544 S_4 L_2) 0.0))))
 (let (($x66442 (or $x1092 $x2447 (<= (+ A_2 ?x491 ?x1029 ?x590 ?x620) 0.0) (<= (+ A_4 ?x475 A_2 ?x491 C ?x590) 0.0))))
 (let (($x33893 (or $x66 $x33766 (<= (+ (* (- 1.0) A_2) ?x1029 S_0 L_2 B) 0.0))))
 (let (($x56 (= L_1 L_0)))
 (let (($x1360 (not $x56)))
 (let (($x64236 (or $x66 $x1360 (<= (+ (* (- 1.0) A_2) A_1 C L_2 (* (- 1.0) L_0)) 0.0))))
 (let (($x5315 (<= (+ A_2 (* (- 1.0) A_0) (* (- 2.0) C) ?x590 ?x620 L_0) 0.0)))
 (let (($x6038 (or $x66 (<= (+ (* (- 1.0) A_2) (* (- 2.0) C) S_4 L_2 B) 0.0))))
 (let (($x5339 (<= (+ A_2 (* (- 1.0) S_3) ?x590 ?x620) 0.0)))
 (let (($x1801 (<= (+ A_3 (* (- 1.0) A_2) ?x544 ?x620) 0.0)))
 (let (($x429 (<= 0.0 (+ (* (- 1.0) A_2) A_1 L_2 C (* (- 1.0) L_1) ?x620))))
 (let (($x427 (not $x429)))
 (let (($x66471 (or $x56 (<= (+ ?x467 A_3 ?x483 S_5 (* (- 2.0) C) L_1) 0.0))))
 (let (($x1239 (<= (+ A_1 ?x491 (* 3.0 C) (* (- 1.0) L_1) ?x620) 0.0)))
 (let (($x1126 (<= (+ A_3 ?x483 ?x590 (* (- 2.0) C) L_1 B) 0.0)))
 (let (($x349 (not $x351)))
 (let (($x66347 (or $x351 $x429 $x1239 (<= (+ A_4 ?x475 A_1 ?x491 ?x1029 (* (- 1.0) L_1)) 0.0))))
 (let (($x66396 (or $x56 (<= (+ ?x471 A_3 ?x483 (* (- 2.0) C) S_4 L_1) 0.0))))
 (let (($x65053 (or (<= (+ A_1 C (* (- 1.0) S_3) (* (- 1.0) L_1) ?x620) 0.0) $x1780)))
 (let (($x1137 (= (+ (* (- 1.0) A_2) A_1 L_2 C (* (- 1.0) L_1)) 0.0)))
 (let (($x64333 (or $x429 $x1098 (<= (+ A_1 ?x1029 (* (- 1.0) S_4) (* (- 1.0) L_1) ?x620) 0.0))))
 (let (($x1146 (<= (+ A_1 (* (- 1.0) A_0) ?x544 (* (- 1.0) L_1) ?x620 L_0) 0.0)))
 (let (($x1110 (<= (+ A_1 ?x524 (* (- 1.0) L_1) ?x620) 0.0)))
 (let (($x128 (>= S_1 S_0)))
 (let (($x131 (>= S_2 S_1)))
 (let (($x134 (>= S_3 S_2)))
 (let (($x137 (>= S_4 S_3)))
 (let (($x140 (>= S_5 S_4)))
 (let (($x142 (>= A_1 A_0)))
 (let (($x143 (>= A_2 A_1)))
 (let (($x144 (>= A_3 A_2)))
 (let (($x145 (>= A_4 A_3)))
 (let (($x146 (>= A_5 A_4)))
 (and $x146 $x145 $x144 $x143 $x142 $x140 $x137 $x134 $x131 $x128 (or (not (<= 0.0 (+ (* (- 1.0) L_1) L_0))) $x56) $x1110 (or $x56 (<= (+ ?x483 S_1 L_1 B) 0.0)) $x1146 (<= (+ A_1 (* (- 2.0) C) ?x1119 (* (- 1.0) L_1) ?x620) 0.0) (or $x66 $x427) (or $x56 $x66 $x1137) (<= (+ A_1 ?x544 (* (- 1.0) S_1) (* (- 1.0) L_1) ?x620) 0.0) $x64333 (or $x56 (<= (+ ?x483 C S_0 L_1 B) 0.0)) (or $x56 (<= 0.0 (+ (* (- 1.0) A_2) A_1 C)) $x1137) (or $x56 (<= (+ ?x483 ?x544 S_2 L_1 B) 0.0)) (or $x56 (<= (+ ?x483 (* (- 2.0) C) S_3 L_1 B) 0.0)) (or $x429 $x1092 (not $x1126) $x2447) $x65053 $x66396 (or $x56 (<= (+ ?x471 A_3 ?x483 S_5 ?x1431 L_1) 0.0)) $x66347 (or $x56 (<= (+ ?x483 ?x1431 S_4 L_1 B) 0.0)) (or $x56 (<= (+ ?x483 S_5 ?x1471 L_1 B) 0.0)) (or $x349 $x429 $x1092 $x1126 $x1239) $x66471 (or $x56 (<= (+ A_4 ?x467 ?x483 S_5 ?x1431 L_1) 0.0)) (or $x427 $x1098 $x1776) (or $x427 $x1092 $x1731 (not $x1801) $x33415) (or $x427 $x1092 $x2447 $x32938) (or $x427 $x1731 $x1801 $x2885) (or $x66 (<= (+ (* (- 1.0) A_2) S_2 L_2 B) 0.0)) $x5339 $x6038 (or $x66 (<= (+ (* (- 1.0) A_2) ?x544 S_3 L_2 B) 0.0)) (or $x1098 (<= (+ A_2 C (* (- 1.0) S_4) ?x590 ?x620) 0.0)) (or $x66 (<= (+ (* (- 1.0) A_2) C S_1 L_2 B) 0.0)) (<= (+ A_2 ?x544 ?x524 ?x590 ?x620) 0.0) $x5315 (<= (+ A_2 ?x1431 ?x1119 ?x590 ?x620) 0.0) $x64236 $x33893 (<= (+ ?x483 L_1 S_1) 0.0) (or $x66 (<= (+ (* (- 1.0) A_2) S_5 ?x1431 L_2 B) 0.0)) $x66442 $x66296 (or $x66 $x6975) (<= (+ ?x475 L_2 ?x544 S_4) 0.0) (<= (+ ?x475 S_5 L_2 (* (- 2.0) C)) 0.0) (or $x66 $x7523) $x64618 (<= (+ A_4 ?x467 ?x475 S_5 L_2 ?x544 ?x620) 0.0) (<= (+ A_2 (* (- 2.0) C) (* (- 1.0) S_1) ?x590 ?x620) 0.0) (or $x66 (not (<= 0.0 (+ L_1 ?x590)))) (or $x5681 (not $x33766)) (<= (+ ?x483 L_1 ?x544 S_2) 0.0) $x34159 $x64567 (<= (+ (* (- 1.0) A_0) ?x1431 S_3 L_0) 0.0) $x2900 (<= (+ ?x467 A_3 S_5 ?x620 (* (- 1.0) S_4)) 0.0) (<= (+ ?x467 A_3 (* (- 1.0) A_0) S_5 ?x620 ?x1431 L_0) 0.0) (<= (+ (* (- 1.0) A_2) S_5 L_2 ?x1431) 0.0) (<= (+ (* (- 1.0) A_0) (* (- 2.0) C) S_2 L_0) 0.0) $x3059 $x9178 $x34411 $x12437 (or $x1098 (<= (+ C (* (- 1.0) S_4) S_2) 0.0)) (or $x1780 (<= (+ C (* (- 1.0) S_3) S_1) 0.0)) $x13984 (or $x1098 $x1776 (<= (+ ?x1029 (* (- 1.0) S_4) S_1) 0.0)) (<= (+ ?x483 L_1 (* (- 2.0) C) S_3) 0.0) (<= (+ (* (- 2.0) C) S_2 (* (- 1.0) S_1)) 0.0) (or $x1098 $x1776 $x33783 $x34153) (<= (+ ?x1431 S_3 (* (- 1.0) S_1)) 0.0) (<= (+ (* (- 1.0) A_2) L_2 ?x544 S_3) 0.0) (<= (+ ?x1431 S_2 ?x1119) 0.0) (<= (+ ?x1471 S_3 ?x1119) 0.0) $x8364 (<= (+ (* (- 1.0) A_2) L_2 (* (- 2.0) C) S_4) 0.0) $x20494 (<= (+ A_4 ?x467 S_5 ?x620 ?x1471 (* (- 1.0) S_1)) 0.0) (<= (+ A_4 ?x467 ?x483 L_1 S_5 ?x1431 ?x620) 0.0) (<= (+ A_4 ?x467 S_5 ?x620 ?x1431 ?x524) 0.0) (<= (+ A_4 ?x467 (* (- 1.0) A_0) S_5 ?x620 ?x1471 L_0) 0.0) $x20495 (<= (+ A_4 ?x467 S_5 ?x620 (* (- 5.0) C) ?x1119) 0.0) (<= (+ (* (- 1.0) A_0) S_5 (* (- 5.0) C) L_0) 0.0) (<= (+ (* (- 1.0) A_0) ?x1471 S_4 L_0) 0.0) (<= (+ S_5 (* (- 5.0) C) (* (- 1.0) S_1)) 0.0) (<= (+ ?x1471 S_4 (* (- 1.0) S_1)) 0.0) (<= (+ S_5 ?x1431 (* (- 1.0) S_3)) 0.0) (<= (+ ?x483 L_1 ?x1431 S_4) 0.0) (or $x1092 $x2447 $x12823 $x32938) (or $x1092 $x2447 $x9264 $x32938) (or $x1092 $x5616 $x33415 (not $x33919) $x34153 $x34994) (or $x349 $x1092 $x2447 $x34153 $x34994) (or $x351 $x1092 $x5616 $x32938 $x34153) (or $x1092 $x2447 $x11128 $x32938 $x34152) (<= (+ (* (- 5.0) C) S_4 ?x1119) 0.0) (<= (+ ?x1431 S_4 ?x524) 0.0) $x25306 $x26366 (<= (+ ?x471 A_3 ?x483 L_1 S_5 ?x1431 ?x620) 0.0) (or $x1092 $x2447 $x11128 $x32938 $x33783) $x7533 (<= (+ S_5 (* (- 6.0) C) ?x1119) 0.0) (<= (+ S_5 ?x1471 ?x524) 0.0) (or $x11128 $x11521 $x33919 $x34152 $x34994) (or $x1092 $x11128 $x11521 $x33415 $x34152 $x34994) $x38943 (<= (+ ?x483 L_1 S_5 ?x1471) 0.0) (<= (+ ?x471 A_3 ?x620 (* (- 2.0) C) S_4 ?x524) 0.0) $x2903 (<= (+ ?x471 A_3 ?x620 ?x1431 S_4 (* (- 1.0) S_1)) 0.0) (<= (+ ?x471 A_3 (* (- 1.0) A_0) ?x620 ?x1431 S_4 L_0) 0.0) (<= (+ ?x467 A_3 S_5 ?x620 (* (- 2.0) C) ?x524) 0.0) (<= (+ ?x467 A_3 S_5 ?x620 ?x1431 (* (- 1.0) S_1)) 0.0) $x9667 (or $x1092 $x1731 $x2885 $x11128 $x11521 $x33415 $x33783) (<= (+ ?x471 A_3 S_5 ?x620 ?x1431 ?x524) 0.0) $x26170 $x25194 (or $x1092 (<= (+ A_4 ?x475 ?x491 B C S_2) 0.0) $x9264 $x33415) (<= (+ ?x471 A_3 ?x620 ?x1471 S_4 ?x1119) 0.0) $x65994 $x25635 $x3104 (<= (+ ?x467 A_3 S_5 ?x620 ?x1471 ?x1119) 0.0) $x633 $x685 $x39 (<= (+ ?x471 L_2 S_4) 0.0) (<= (+ ?x471 S_5 L_2 ?x544) 0.0) (<= (+ (* (- 1.0) A_0) S_0 L_0) 0.0) (<= (+ (* (- 2.0) C) S_1 ?x1119) 0.0) (<= (+ (* (- 1.0) A_2) L_2 S_2) 0.0) (<= (+ ?x467 S_5 L_2) 0.0) (<= (+ ?x475 L_2 S_3) 0.0) (<= (+ (* (- 1.0) A_0) ?x544 S_1 L_0) 0.0) (<= (+ (* (- 2.0) C) S_3 ?x524) 0.0) (<= (+ (* (- 2.0) C) S_4 (* (- 1.0) S_3)) 0.0) (<= (+ S_5 (* (- 2.0) C) (* (- 1.0) S_4)) 0.0))))))))))))))))))))))))))))))))))))))))))))))))))))))))))))))))))))))))))))))))))))))))))))))))))))))
(check-sat)
